(declare-const __VERIFIER_assert__cond___49 Int)
(declare-const |havoc:9:158:412:429:446:505| Int)
(declare-const |K:401:402:419:436:453:512| Int)
(declare-const |havoc:18:161:415:432:449:508| Int)
(declare-const havoc Int)
(declare-const |havoc:12:159:413:430:447:506| Int)
(declare-const |havoc:21:162:416:433:450:509| Int)
(declare-const |main____CPAchecker_TMP_0___7':379:408:425:442:459:518| Int)
(declare-const |main____CPAchecker_TMP_1___7':380:403:420:437:454:513| Int)
(declare-const |main__t':378:404:421:438:455:514| Int)
(declare-const |__VERIFIER_assert__cond___50':383:409:426:443:460:519| Int)
(declare-const |havoc:27:164:418:435:452:511| Int)
(declare-const __VERIFIER_assert__cond___50 Int)
(declare-const |havoc:34:165:375:502:521| Int)
(declare-const |main____CPAchecker_TMP_0___8':381:410:427:444:461:520| Int)
(declare-const |__VERIFIER_assert__cond___49':382:407:424:441:458:517| Int)
(declare-const |havoc:15:160:414:431:448:507| Int)
(declare-const |havoc:6:157:411:428:445:504| Int)
(declare-const |havoc:2:156:503| Int)
(declare-const main____CPAchecker_TMP_0___8 Int)
(declare-const |__tmp_3137_0':377:406:423:440:457:516| Int)
(declare-const |havoc:24:163:417:434:451:510| Int)
(declare-const |__tmp_3137_1':376:405:422:439:456:515| Int)
(assert (and (<= (+ (- havoc) 1) 0) (not (= (+ (- havoc) 1) 0))
               (= |havoc:2:156:503| 0)
               (not (= (ite (<= (+ (- havoc) 1) 0) 1 0) 0))
               (not (= (+ (- havoc) 2) 0))
               (= |havoc:6:157:411:428:445:504| 0)
               (not (= (ite (<= (+ (- havoc) 2) 0) 1 0) 0))
               (not (= (+ (- havoc) 3) 0))
               (= |havoc:9:158:412:429:446:505| 0)
               (not (= (ite (<= (+ (- havoc) 3) 0) 1 0) 0))
               (not (= (+ (- havoc) 4) 0))
               (= |havoc:12:159:413:430:447:506| 0)
               (not (= (ite (<= (+ (- havoc) 4) 0) 1 0) 0))
               (not (= (+ (- havoc) 5) 0))
               (= |havoc:15:160:414:431:448:507| 0)
               (not (= (ite (<= (+ (- havoc) 5) 0) 1 0) 0))
               (not (= (+ (- havoc) 6) 0))
               (= |havoc:18:161:415:432:449:508| 0)
               (not (= (ite (<= (+ (- havoc) 6) 0) 1 0) 0))
               (not (= (+ (- havoc) 7) 0))
               (= |havoc:21:162:416:433:450:509| 0)
               (not (= (ite (<= (+ (- havoc) 7) 0) 1 0) 0))
               (not (= (+ (- havoc) 8) 0))
               (= |havoc:24:163:417:434:451:510| 0)
               (not (= (ite (<= (+ (- havoc) 8) 0) 1 0) 0))
               (not (= (+ (- havoc) 9) 0))
               (= |havoc:27:164:418:435:452:511| 0)
               (not (= (ite (<= (+ (- havoc) 9) 0) 1 0) 0))
               (or (not (and (<= (- |K:401:402:419:436:453:512|) 0)
                               (<= |K:401:402:419:436:453:512| 0)))
                     (= (+ |main____CPAchecker_TMP_1___7':380:403:420:437:454:513|
                             (- |K:401:402:419:436:453:512|) -8) 0))
               (or (not (<= (+ (- |K:401:402:419:436:453:512|) 1) 0))
                     (= (+ |main____CPAchecker_TMP_1___7':380:403:420:437:454:513|
                             (- |K:401:402:419:436:453:512|) -7) 0))
               (or (not (and (<= (- |K:401:402:419:436:453:512|) 0)
                               (<= |K:401:402:419:436:453:512| 0)))
                     (= (+ |main__t':378:404:421:438:455:514|
                             (- |K:401:402:419:436:453:512|) -9) 0))
               (or (not (<= (+ (- |K:401:402:419:436:453:512|) 1) 0))
                     (= (+ |main__t':378:404:421:438:455:514|
                             (- |K:401:402:419:436:453:512|) -9) 0))
               (or (not (and (<= (- |K:401:402:419:436:453:512|) 0)
                               (<= |K:401:402:419:436:453:512| 0)))
                     (= (+ |__tmp_3137_1':376:405:422:439:456:515|
                             (- |havoc:27:164:418:435:452:511|)) 0))
               (or (not (<= (+ (- |K:401:402:419:436:453:512|) 1) 0))
                     (= |__tmp_3137_1':376:405:422:439:456:515| 0))
               (or (not (and (<= (- |K:401:402:419:436:453:512|) 0)
                               (<= |K:401:402:419:436:453:512| 0)))
                     (= (+ |__tmp_3137_0':377:406:423:440:457:516|
                             (- |K:401:402:419:436:453:512|) -8) 0))
               (or (not (<= (+ (- |K:401:402:419:436:453:512|) 1) 0))
                     (= (+ |__tmp_3137_0':377:406:423:440:457:516|
                             (- |K:401:402:419:436:453:512|) -8) 0))
               (or (not (and (<= (- |K:401:402:419:436:453:512|) 0)
                               (<= |K:401:402:419:436:453:512| 0)))
                     (= (+ (- __VERIFIER_assert__cond___49)
                             |__VERIFIER_assert__cond___49':382:407:424:441:458:517|) 0))
               (or (not (<= (+ (- |K:401:402:419:436:453:512|) 1) 0))
                     (= (+ |__VERIFIER_assert__cond___49':382:407:424:441:458:517|
                             -1) 0))
               (or (not (and (<= (- |K:401:402:419:436:453:512|) 0)
                               (<= |K:401:402:419:436:453:512| 0)))
                     (= (+ |main____CPAchecker_TMP_0___7':379:408:425:442:459:518|
                             (- |havoc:27:164:418:435:452:511|)) 0))
               (or (not (<= (+ (- |K:401:402:419:436:453:512|) 1) 0))
                     (= |main____CPAchecker_TMP_0___7':379:408:425:442:459:518| 0))
               (or (not (and (<= (- |K:401:402:419:436:453:512|) 0)
                               (<= |K:401:402:419:436:453:512| 0)))
                     (= (+ (- __VERIFIER_assert__cond___50)
                             |__VERIFIER_assert__cond___50':383:409:426:443:460:519|) 0))
               (or (not (<= (+ (- |K:401:402:419:436:453:512|) 1) 0))
                     (= (+ |__VERIFIER_assert__cond___50':383:409:426:443:460:519|
                             -1) 0))
               (or (not (and (<= (- |K:401:402:419:436:453:512|) 0)
                               (<= |K:401:402:419:436:453:512| 0)))
                     (= (+ (- main____CPAchecker_TMP_0___8)
                             |main____CPAchecker_TMP_0___8':381:410:427:444:461:520|) 0))
               (or (not (<= (+ (- |K:401:402:419:436:453:512|) 1) 0))
                     (= |main____CPAchecker_TMP_0___8':381:410:427:444:461:520| 0))
               (or (not (and (<= (- |K:401:402:419:436:453:512|) 0)
                               (<= |K:401:402:419:436:453:512| 0)))
                     (<= (+ (* 2
                                 |main____CPAchecker_TMP_1___7':380:403:420:437:454:513|)
                              (- (* |K:401:402:419:436:453:512|
                                      |K:401:402:419:436:453:512|))
                              (* -13 |K:401:402:419:436:453:512|) -16) 0))
               (or (not (<= (+ (- |K:401:402:419:436:453:512|) 1) 0))
                     (<= (+ (* 2
                                 |main____CPAchecker_TMP_1___7':380:403:420:437:454:513|)
                              (- (* |K:401:402:419:436:453:512|
                                      |K:401:402:419:436:453:512|))
                              (* -13 |K:401:402:419:436:453:512|) -16) 0))
               (or (and (= |K:401:402:419:436:453:512| 0)
                          (= (+ __VERIFIER_assert__cond___50
                                  (- |__VERIFIER_assert__cond___50':383:409:426:443:460:519|)) 0)
                          (= (+ __VERIFIER_assert__cond___49
                                  (- |__VERIFIER_assert__cond___49':382:407:424:441:458:517|)) 0)
                          (= (+ main____CPAchecker_TMP_0___8
                                  (- |main____CPAchecker_TMP_0___8':381:410:427:444:461:520|)) 0)
                          (= (+ (- |main____CPAchecker_TMP_1___7':380:403:420:437:454:513|)
                                  8) 0)
                          (= (+ (- |main____CPAchecker_TMP_0___7':379:408:425:442:459:518|)
                                  |havoc:27:164:418:435:452:511|) 0)
                          (= (+ (- |main__t':378:404:421:438:455:514|) 9) 0)
                          (= (+ (- |__tmp_3137_0':377:406:423:440:457:516|) 8) 0)
                          (= (+ (- |__tmp_3137_1':376:405:422:439:456:515|)
                                  |havoc:27:164:418:435:452:511|) 0))
                     (and (<= (+ (- |K:401:402:419:436:453:512|) 1) 0)
                            (= |havoc:27:164:418:435:452:511| 0)
                            (= |havoc:27:164:418:435:452:511| 0)
                            (<= (+ (- havoc) 11) 0)
                            (= (+ (- |main__t':378:404:421:438:455:514|)
                                    |main____CPAchecker_TMP_1___7':380:403:420:437:454:513|
                                    2) 0)
                            (= (+ |__tmp_3137_0':377:406:423:440:457:516|
                                    (- |main__t':378:404:421:438:455:514|) 1) 0)
                            (= (+ |__VERIFIER_assert__cond___50':383:409:426:443:460:519|
                                    -1) 0)
                            (= (+ |__VERIFIER_assert__cond___49':382:407:424:441:458:517|
                                    -1) 0)
                            (= |main____CPAchecker_TMP_0___7':379:408:425:442:459:518| 0)
                            (= |main____CPAchecker_TMP_0___8':381:410:427:444:461:520| 0)
                            (= |__tmp_3137_1':376:405:422:439:456:515| 0)
                            (<= (+ |main__t':378:404:421:438:455:514|
                                     (- havoc) 1) 0)
                            (<= (+ (- |main__t':378:404:421:438:455:514|) 3) 0)))
               (<= (- |K:401:402:419:436:453:512|) 0)
               (< (- |main____CPAchecker_TMP_1___7':380:403:420:437:454:513|) 0)
               (= |__tmp_3137_1':376:405:422:439:456:515| 0)
               (< (- |__tmp_3137_0':377:406:423:440:457:516|) 0)
               (= |main____CPAchecker_TMP_0___7':379:408:425:442:459:518| 0)
               (< (- |main__t':378:404:421:438:455:514|) 0)
               (< (+ (- havoc) 1) 0)
               (= (+ |__tmp_3137_0':377:406:423:440:457:516|
                       (- |main__t':378:404:421:438:455:514|) 1) 0)
               (= |__tmp_3137_1':376:405:422:439:456:515| 0)
               (= |main____CPAchecker_TMP_0___7':379:408:425:442:459:518| 0)
               (not (= (+ |main__t':378:404:421:438:455:514| (- havoc) 1) 0))
               (= |havoc:34:165:375:502:521| 0)
               (= (ite (<= (- |main__t':378:404:421:438:455:514|) 0) 1 0) 0)))
(check-sat)
